words_hard_train/6178.qaiger
aag 128 24 0 1 104
2
4
8
12
16
20
24
28
36
38
42
46
54
62
70
78
86
94
98
112
116
130
134
238
256
6 2 4
10 6 8
14 11 13
18 15 16
22 18 20
26 23 25
30 27 29
32 26 28
34 31 33
40 37 39
44 38 42
48 44 46
50 45 47
52 49 51
56 53 55
58 40 56
60 51 42
64 60 62
66 61 63
68 65 67
72 69 71
74 58 72
76 67 42
80 76 78
82 77 79
84 81 83
88 85 87
90 74 88
92 83 42
96 93 94
100 97 99
102 92 95
104 100 103
106 90 104
108 82 95
110 109 42
114 111 112
118 115 117
120 110 113
122 118 121
124 106 122
126 108 113
128 127 42
132 129 130
136 133 135
138 131 42
140 138 127
142 136 141
144 124 142
146 35 144
148 19 21
150 149 23
152 107 123
154 153 125
156 150 154
158 22 24
160 159 27
162 125 143
164 163 145
166 161 164
168 157 167
170 40 2
172 171 5
174 172 57
176 175 59
178 177 7
180 59 73
182 181 75
184 182 8
186 178 185
188 187 11
190 183 9
192 188 191
194 192 13
196 14 17
198 197 19
200 91 105
202 201 107
204 198 202
206 195 205
208 10 12
210 209 15
212 210 193
214 75 89
216 215 91
218 213 216
220 206 219
222 199 203
224 221 223
226 151 155
228 224 227
230 168 229
232 160 165
234 231 233
236 138 126
240 237 239
242 234 241
244 146 242
246 147 243
248 34 145
250 235 240
252 249 251
254 246 253
256 245 255
i0 2 y2[0]
i1 2 y2[1]
i2 2 y2[2]
i3 2 y2[3]
i4 2 y2[4]
i5 2 y2[5]
i6 2 y2[6]
i7 2 y2[7]
i8 1 x2[0]
i9 1 x1[0]
i10 1 x1[7]
i11 1 x1[1]
i12 1 x2[1]
i13 1 x1[2]
i14 1 x2[2]
i15 1 x1[3]
i16 1 x2[3]
i17 1 x1[4]
i18 1 x2[4]
i19 1 x1[5]
i20 1 x2[5]
i21 1 x1[6]
i22 1 x2[6]
i23 1 x2[7]
o0 bv[0]
c
simplified
  <=
    or
      abs
        1 x1
      1 x2
    subtract
      2 y2
      -201
