words_hard_train/6178.qaiger.qdimacs
p cnf 128 313
a 65 35 67 39 43 47 49 18 19 119 21 23 56 58 27 31 0
e 1 2 3 4 5 6 7 8 9 10 11 12 13 14 15 16 17 20 22 24 25 26 28 29 30 32 33 34 36 37 38 40 41 42 44 45 46 48 50 51 52 53 54 55 57 59 60 61 62 63 64 66 68 69 70 71 72 73 74 75 76 77 78 79 80 81 82 83 84 85 86 87 88 89 90 91 92 93 94 95 96 97 98 99 100 101 102 103 104 105 106 107 108 109 110 111 112 113 114 115 116 117 118 120 121 122 123 124 125 126 127 128 0
-1 -2 3 0
1 -3 0
2 -3 0
-3 -4 5 0
3 -5 0
4 -5 0
5 6 7 0
-5 -7 0
-6 -7 0
7 -8 9 0
-7 -9 0
8 -9 0
-9 -10 11 0
9 -11 0
10 -11 0
11 12 13 0
-11 -13 0
-12 -13 0
13 14 15 0
-13 -15 0
-14 -15 0
-13 -14 16 0
13 -16 0
14 -16 0
15 16 17 0
-15 -17 0
-16 -17 0
18 19 20 0
-18 -20 0
-19 -20 0
-19 -21 22 0
19 -22 0
21 -22 0
-22 -23 24 0
22 -24 0
23 -24 0
22 23 25 0
-22 -25 0
-23 -25 0
24 25 26 0
-24 -26 0
-25 -26 0
26 27 28 0
-26 -28 0
-27 -28 0
-20 -28 29 0
20 -29 0
28 -29 0
25 -21 30 0
-25 -30 0
21 -30 0
-30 -31 32 0
30 -32 0
31 -32 0
30 31 33 0
-30 -33 0
-31 -33 0
32 33 34 0
-32 -34 0
-33 -34 0
34 35 36 0
-34 -36 0
-35 -36 0
-29 -36 37 0
29 -37 0
36 -37 0
33 -21 38 0
-33 -38 0
21 -38 0
-38 -39 40 0
38 -40 0
39 -40 0
38 39 41 0
-38 -41 0
-39 -41 0
40 41 42 0
-40 -42 0
-41 -42 0
42 43 44 0
-42 -44 0
-43 -44 0
-37 -44 45 0
37 -45 0
44 -45 0
41 -21 46 0
-41 -46 0
21 -46 0
46 -47 48 0
-46 -48 0
47 -48 0
48 49 50 0
-48 -50 0
-49 -50 0
-46 47 51 0
46 -51 0
-47 -51 0
-50 51 52 0
50 -52 0
-51 -52 0
-45 -52 53 0
45 -53 0
52 -53 0
-41 47 54 0
41 -54 0
-47 -54 0
54 -21 55 0
-54 -55 0
21 -55 0
55 -56 57 0
-55 -57 0
56 -57 0
57 58 59 0
-57 -59 0
-58 -59 0
-55 56 60 0
55 -60 0
-56 -60 0
-59 60 61 0
59 -61 0
-60 -61 0
-53 -61 62 0
53 -62 0
61 -62 0
-54 56 63 0
54 -63 0
-56 -63 0
63 -21 64 0
-63 -64 0
21 -64 0
64 -65 66 0
-64 -66 0
65 -66 0
66 67 68 0
-66 -68 0
-67 -68 0
65 -21 69 0
-65 -69 0
21 -69 0
-69 63 70 0
69 -70 0
-63 -70 0
-68 70 71 0
68 -71 0
-70 -71 0
-62 -71 72 0
62 -72 0
71 -72 0
17 -72 73 0
-17 -73 0
72 -73 0
9 10 74 0
-9 -74 0
-10 -74 0
74 11 75 0
-74 -75 0
-11 -75 0
53 61 76 0
-53 -76 0
-61 -76 0
76 62 77 0
-76 -77 0
-62 -77 0
-75 -77 78 0
75 -78 0
77 -78 0
-11 -12 79 0
11 -79 0
12 -79 0
79 13 80 0
-79 -80 0
-13 -80 0
62 71 81 0
-62 -81 0
-71 -81 0
81 72 82 0
-81 -82 0
-72 -82 0
80 -82 83 0
-80 -83 0
82 -83 0
78 83 84 0
-78 -84 0
-83 -84 0
-20 -1 85 0
20 -85 0
1 -85 0
85 2 86 0
-85 -86 0
-2 -86 0
-86 28 87 0
86 -87 0
-28 -87 0
87 29 88 0
-87 -88 0
-29 -88 0
88 3 89 0
-88 -89 0
-3 -89 0
29 36 90 0
-29 -90 0
-36 -90 0
90 37 91 0
-90 -91 0
-37 -91 0
-91 -4 92 0
91 -92 0
4 -92 0
-89 92 93 0
89 -93 0
-92 -93 0
93 5 94 0
-93 -94 0
-5 -94 0
91 4 95 0
-91 -95 0
-4 -95 0
-94 95 96 0
94 -96 0
-95 -96 0
-96 6 97 0
96 -97 0
-6 -97 0
-7 8 98 0
7 -98 0
-8 -98 0
98 9 99 0
-98 -99 0
-9 -99 0
45 52 100 0
-45 -100 0
-52 -100 0
100 53 101 0
-100 -101 0
-53 -101 0
-99 -101 102 0
99 -102 0
101 -102 0
97 102 103 0
-97 -103 0
-102 -103 0
-5 -6 104 0
5 -104 0
6 -104 0
104 7 105 0
-104 -105 0
-7 -105 0
-105 96 106 0
105 -106 0
-96 -106 0
37 44 107 0
-37 -107 0
-44 -107 0
107 45 108 0
-107 -108 0
-45 -108 0
106 -108 109 0
-106 -109 0
108 -109 0
-103 109 110 0
103 -110 0
-109 -110 0
99 101 111 0
-99 -111 0
-101 -111 0
110 111 112 0
-110 -112 0
-111 -112 0
75 77 113 0
-75 -113 0
-77 -113 0
-112 113 114 0
112 -114 0
-113 -114 0
-84 114 115 0
84 -115 0
-114 -115 0
-80 82 116 0
80 -116 0
-82 -116 0
115 116 117 0
-115 -117 0
-116 -117 0
-69 -63 118 0
69 -118 0
63 -118 0
118 119 120 0
-118 -120 0
-119 -120 0
-117 120 121 0
117 -121 0
-120 -121 0
-73 -121 122 0
73 -122 0
121 -122 0
73 121 123 0
-73 -123 0
-121 -123 0
-17 72 124 0
17 -124 0
-72 -124 0
117 -120 125 0
-117 -125 0
120 -125 0
124 125 126 0
-124 -126 0
-125 -126 0
-123 126 127 0
123 -127 0
-126 -127 0
122 127 128 0
-122 -128 0
-127 -128 0
128 0
